p edge 32 113
e 1 2
e 1 5
e 1 9
e 1 12
e 1 17
e 1 18
e 1 19
e 1 25
e 1 27
e 2 6
e 2 17
e 2 24
e 2 26
e 3 4
e 3 7
e 3 11
e 3 16
e 3 21
e 3 25
e 3 28
e 3 30
e 4 10
e 4 16
e 4 19
e 4 20
e 4 23
e 4 25
e 5 6
e 5 22
e 5 23
e 5 30
e 6 7
e 6 8
e 6 24
e 6 30
e 7 8
e 7 11
e 7 14
e 7 28
e 7 30
e 7 31
e 8 9
e 8 16
e 8 18
e 8 21
e 8 22
e 9 12
e 9 15
e 9 20
e 9 21
e 10 20
e 10 27
e 10 28
e 11 12
e 11 13
e 11 16
e 11 21
e 11 22
e 11 26
e 11 31
e 12 13
e 12 14
e 12 15
e 12 16
e 12 17
e 12 26
e 12 29
e 13 16
e 13 18
e 13 20
e 13 21
e 13 26
e 14 15
e 14 17
e 15 17
e 15 20
e 15 27
e 15 32
e 16 26
e 17 19
e 17 24
e 17 31
e 18 19
e 18 20
e 18 22
e 18 25
e 18 27
e 19 23
e 19 24
e 19 25
e 19 27
e 19 32
e 20 30
e 21 28
e 21 29
e 21 31
e 22 23
e 22 25
e 22 26
e 22 30
e 23 24
e 23 27
e 24 27
e 25 26
e 25 27
e 25 30
e 25 31
e 26 30
e 27 28
e 28 29
e 28 30
e 28 31
e 29 31
